75 81 
67 60 
89 46 
6 48 
16 50 
47 76 
27 79 
71 45 
99 15 
36 86 
55 44 
16 87 
83 34 
5 69 
21 46 
12 96 
79 79 
8 21 
25 14 
69 93 
65 16 
69 44 
96 93 
89 95 
8 25 
34 15 
22 50 
2 57 
84 8 
26 57 
6 90 
5 38 
69 13 
59 47 
28 28 
40 45 
44 62 
89 92 
55 31 
88 15 
56 22 
30 30 
24 85 
87 61 
45 14 
18 3 
4 76 
41 26 
41 0 
73 21 
